************************************************************************
file with basedata            : mf3_.bas
initial value random generator: 1790579233
************************************************************************
projects                      :  1
jobs (incl. supersource/sink ):  32
horizon                       :  227
RESOURCES
  - renewable                 :  2   R
  - nonrenewable              :  2   N
  - doubly constrained        :  0   D
************************************************************************
PROJECT INFORMATION:
pronr.  #jobs rel.date duedate tardcost  MPM-Time
    1     30      0       28        8       28
************************************************************************
PRECEDENCE RELATIONS:
jobnr.    #modes  #successors   successors
   1        1          3           2   3   4
   2        3          2          26  29
   3        3          3           6  11  17
   4        3          3           5   7  11
   5        3          2           6  27
   6        3          2           8   9
   7        3          3          15  17  19
   8        3          2          10  21
   9        3          3          12  13  31
  10        3          1          15
  11        3          2          20  24
  12        3          3          14  16  18
  13        3          3          21  24  28
  14        3          1          15
  15        3          1          23
  16        3          2          21  23
  17        3          3          22  23  25
  18        3          3          19  25  29
  19        3          1          24
  20        3          1          27
  21        3          1          25
  22        3          1          27
  23        3          2          26  28
  24        3          1          30
  25        3          1          26
  26        3          1          30
  27        3          2          28  31
  28        3          2          29  30
  29        3          1          32
  30        3          1          32
  31        3          1          32
  32        1          0        
************************************************************************
REQUESTS/DURATIONS:
jobnr. mode duration  R 1  R 2  N 1  N 2
------------------------------------------------------------------------
  1      1     0       0    0    0    0
  2      1     1       8    0    0    2
         2     4       0    7    0    2
         3     8       6    0    3    0
  3      1     1       0    8    6    0
         2     2       0    7    5    0
         3     2       0    5    0    6
  4      1     4       1    0    0    5
         2     4       0    7    0    7
         3    10       1    0    8    0
  5      1     4       0    7    2    0
         2     6       0    4    2    0
         3    10       0    2    1    0
  6      1     1       0    7    0    6
         2     5       0    4    0    4
         3     8       0    3    0    3
  7      1     4       8    0    8    0
         2     8       0    5    8    0
         3    10       7    0    0    2
  8      1     1       0    8    0    4
         2     3       3    0    0    3
         3     6       0    8    0    2
  9      1     7       0    5    0    7
         2     8       9    0    5    0
         3     9       4    0    5    0
 10      1     3       3    0    0    7
         2     9       0    3    3    0
         3     9       0    5    0    5
 11      1     2       6    0    0    7
         2     6       0    1    0    1
         3     9       2    0    3    0
 12      1     1       6    0    0    9
         2     2       6    0    0    2
         3     8       0    3    6    0
 13      1     1       0    3    0    7
         2     3       0    1    0    4
         3     4       5    0    0    3
 14      1     1       0    5    0    7
         2     3       6    0    8    0
         3     6       0    2    8    0
 15      1     2       0    5    5    0
         2     3      10    0    0    5
         3    10       8    0    0    2
 16      1     1       8    0    0    7
         2     2       7    0    0    5
         3     8       6    0    3    0
 17      1     4       0    9   10    0
         2     6       0    9    0    6
         3     8       0    6    0    5
 18      1     4       3    0    9    0
         2     5       0    6    7    0
         3     8       0    3    0    3
 19      1     1       0    7    9    0
         2     2       0    7    0    7
         3    10       0    7    8    0
 20      1     1       0    3    0    9
         2     6       0    2    6    0
         3     6       0    2    0    6
 21      1     2       0    8    0    3
         2     3       3    0    0    3
         3     4       0    6    0    2
 22      1     4      10    0   10    0
         2     8       6    0    0    2
         3     8       0    7    0    2
 23      1     1       0    5    8    0
         2     4       0    3    8    0
         3     6       0    3    7    0
 24      1     1       2    0    0    6
         2     1       0    5    7    0
         3     4       0    5    0    6
 25      1     2      10    0    0    5
         2     5       8    0    8    0
         3     8       6    0    0    4
 26      1     4       0    7    9    0
         2     7       3    0    8    0
         3     8       3    0    0    7
 27      1     2       4    0    0    4
         2     3       2    0    7    0
         3     7       0    5    5    0
 28      1     2       0    7    4    0
         2     7       0    6    3    0
         3    10       0    5    0    3
 29      1     3       5    0    0    6
         2     6       0    5    0    6
         3    10       5    0    0    2
 30      1     1       3    0    6    0
         2     3       0    7    1    0
         3     6       0    3    0    6
 31      1     2       5    0    7    0
         2     2       0    4    0    8
         3     7       0    1    0    6
 32      1     0       0    0    0    0
************************************************************************
RESOURCEAVAILABILITIES:
  R 1  R 2  N 1  N 2
   22   20   46   49
************************************************************************
